1463.12
1401.26
1401.26
1401.26
1401.26
1401.26
1390.66
1390.66
1390.66
1373.34
1361.39
1322.78
1322.78
1302.78
1302.78
1297.61
1292.42
1292.42
1282.58
1278.35
1278.35
1278.35
1278.35
1278.35
1278.35
1278.35
1258.55
1258.55
1258.55
1258.55
1236.02
1236.02
1236.02
1236.02
1194.16
1194.16
1194.16
1194.16
1194.16
1170.48
1170.48
1170.48
1170.48
1170.48
1170.48
1170.48
1170.48
1170.48
1170.48
1170.48
1170.48
1170.48
1170.48
1170.48
1170.48
1170.48
1170.48
1167.77
1164.26
1164.26
1164.26
1151.74
1151.74
1114.32
1099.33
1099.33
1099.33
1099.33
1099.33
1099.33
1099.33
1099.33
1099.33
1099.33
1099.33
1099.33
1099.33
1099.33
1099.33
1099.33
1081.47
1081.47
1081.47
1081.47
1081.47
1081.47
1081.47
1081.47
1081.47
1081.47
1081.47
1081.47
1081.47
1081.47
1081.47
1081.47
1081.47
1081.47
1075.14
1075.14
